(set-info :smt-lib-version 2.6)
(set-logic LRA)
(set-info :source |
   Monniaux, David; Quantifier Elimination by Lazy Model Enumeration, CAV 2010
|)
(set-info :category "random")
; ./Mjollnir_examples/B4/formula_123.m
(set-info :status unsat)
(assert
 (exists ((|v11:0| Real) )(exists ((|v10:1| Real) )(exists ((|v9:2| Real) )(exists ((|v8:3| Real) )(forall ((|v7:4| Real) )(forall ((|v6:5| Real) )(forall ((|v5:6| Real) )(forall ((|v4:7| Real) )(exists ((|v3:8| Real) )(exists ((|v2:9| Real) )(exists ((|v1:10| Real) )(exists ((|v0:11| Real) )(let ((?x103 (- 18)))
(let ((?x42 (- 17)))
(let ((?x43 (* ?x42 |v6:5|)))
(let ((?x604 (+ (+ (* (- 19) |v3:8|) (* 2 |v10:1|)) (* 20 |v1:10|))))
(let ((?x596 (+ (+ (* (- 8) |v3:8|) (* 20 |v2:9|)) (* 11 |v7:4|))))
(let (($x607 (and (<= (+ ?x596 (* 11 |v11:0|)) (- 3)) (<= (+ ?x604 ?x43) ?x103))))
(let ((?x59 17))
(let ((?x10 (- 12)))
(let ((?x140 (* ?x10 |v1:10|)))
(let ((?x587 (+ (+ (* (- 6) |v1:10|) (* 14 |v10:1|)) (* 0 |v7:4|))))
(let ((?x111 0))
(let ((?x137 9))
(let ((?x404 (* ?x137 |v2:9|)))
(let ((?x580 (+ (+ (* (- 7) |v0:11|) (* 15 |v8:3|)) (* (- 19) |v9:2|))))
(let ((?x63 (- 2)))
(let ((?x309 (* ?x63 |v11:0|)))
(let ((?x574 (+ (+ (+ (* (- 13) |v7:4|) (* 16 |v4:7|)) ?x309) (* (- 6) |v11:0|))))
(let ((?x183 (- 4)))
(let ((?x142 (- 14)))
(let ((?x264 (* ?x142 |v5:6|)))
(let ((?x569 (+ (+ (+ (* ?x42 |v7:4|) (* ?x42 |v9:2|)) (* (- 8) |v2:9|)) ?x264)))
(let ((?x90 (- 13)))
(let ((?x228 (* ?x90 |v8:3|)))
(let ((?x562 (+ (+ (+ (* (- 5) |v10:1|) (* 8 |v10:1|)) ?x228) (* 10 |v0:11|))))
(let ((?x14 8))
(let ((?x554 (+ (+ (* 20 |v7:4|) (* 13 |v7:4|)) (* ?x59 |v6:5|))))
(let (($x577 (and (or (<= (+ ?x554 (* 18 |v6:5|)) ?x14) (<= ?x562 ?x137)) (and (<= ?x569 ?x183) (<= ?x574 ?x42)))))
(let (($x609 (and $x577 (and (and (<= (+ ?x580 ?x404) ?x111) (<= (+ ?x587 ?x140) ?x59)) $x607))))
(let ((?x55 (- 1)))
(let ((?x236 (- 6)))
(let ((?x237 (* ?x236 |v9:2|)))
(let ((?x546 (+ (+ (* (- 11) |v8:3|) (* ?x42 |v7:4|)) (* (- 16) |v0:11|))))
(let ((?x79 (- 10)))
(let ((?x539 (+ (+ (* 15 |v4:7|) (* 20 |v11:0|)) (* (- 16) |v4:7|))))
(let (($x549 (and (<= (+ ?x539 (* (- 16) |v6:5|)) ?x79) (<= (+ ?x546 ?x237) ?x55))))
(let ((?x51 18))
(let ((?x530 (+ (+ (* ?x111 |v4:7|) (* 4 |v5:6|)) (* 12 |v3:8|))))
(let ((?x239 12))
(let ((?x524 (+ (+ (* (- 7) |v7:4|) (* (- 9) |v9:2|)) (* 3 |v8:3|))))
(let (($x534 (and (<= (+ ?x524 (* (- 5) |v8:3|)) ?x239) (<= (+ ?x530 (* 10 |v11:0|)) ?x51))))
(let ((?x86 4))
(let ((?x93 (* ?x42 |v5:6|)))
(let ((?x516 (+ (+ (* (- 5) |v6:5|) (* 19 |v4:7|)) (* ?x55 |v2:9|))))
(let ((?x133 10))
(let ((?x27 (- 7)))
(let ((?x510 (* ?x27 |v0:11|)))
(let (($x512 (<= (+ (+ (+ (* ?x142 |v0:11|) (* ?x111 |v8:3|)) (* ?x239 |v6:5|)) ?x510) ?x133)))
(let ((?x505 (+ (+ (+ (* ?x42 |v8:3|) (* ?x137 |v6:5|)) (* ?x10 |v7:4|)) (* ?x63 |v2:9|))))
(let ((?x499 (+ (+ (+ (* ?x79 |v8:3|) (* ?x137 |v10:1|)) (* ?x14 |v4:7|)) (* 16 |v10:1|))))
(let (($x520 (or (and (<= ?x499 ?x86) (<= ?x505 ?x14)) (and $x512 (<= (+ ?x516 ?x93) ?x86)))))
(let ((?x487 (+ (+ (+ (* ?x142 |v6:5|) (* ?x183 |v8:3|)) (* ?x10 |v2:9|)) (* ?x55 |v10:1|))))
(let ((?x479 (+ (+ (* 7 |v6:5|) (* ?x239 |v6:5|)) (* 3 |v0:11|))))
(let ((?x96 3))
(let ((?x149 (- 5)))
(let ((?x425 (* ?x149 |v10:1|)))
(let ((?x71 14))
(let ((?x155 2))
(let ((?x248 (* ?x155 |v7:4|)))
(let ((?x468 (+ (+ (+ (* 7 |v10:1|) |v10:1|) (* (- 8) |v1:10|)) ?x248)))
(let (($x476 (or (<= ?x468 ?x71) (<= (+ (+ (+ |v2:9| (* ?x142 |v1:10|)) (* ?x142 |v8:3|)) ?x425) ?x96))))
(let ((?x37 6))
(let ((?x114 (- 9)))
(let ((?x272 (* ?x114 |v2:9|)))
(let ((?x459 (+ (+ (* ?x14 |v7:4|) (* 7 |v3:8|)) (* (- 15) |v6:5|))))
(let ((?x453 (+ (+ (+ (* ?x96 |v11:0|) (* ?x37 |v5:6|)) (* ?x183 |v7:4|)) (* (- 11) |v5:6|))))
(let ((?x120 11))
(let ((?x203 (* ?x120 |v0:11|)))
(let ((?x443 (+ (+ (* 5 |v10:1|) (* 13 |v7:4|)) (* ?x155 |v6:5|))))
(let ((?x357 13))
(let ((?x436 (* ?x142 |v0:11|)))
(let ((?x435 (+ (+ (* 19 |v8:3|) (* ?x155 |v3:8|)) (* (- 16) |v5:6|))))
(let (($x463 (and (and (<= (+ ?x435 ?x436) ?x357) (<= (+ ?x443 ?x203) ?x10)) (and (<= ?x453 ?x14) (<= (+ ?x459 ?x272) ?x37)))))
(let (($x491 (and $x463 (and $x476 (and (<= (+ ?x479 (* ?x96 |v3:8|)) ?x142) (<= ?x487 ?x10))))))
(let (($x427 (<= (+ (+ (+ (* ?x111 |v8:3|) (* ?x183 |v1:10|)) (* ?x111 |v4:7|)) ?x425) ?x79)))
(let ((?x418 (+ (+ (+ (* ?x239 |v7:4|) (* ?x51 |v0:11|)) (* (- 11) |v3:8|)) |v2:9|)))
(let ((?x411 (+ (+ (+ (* ?x86 |v11:0|) (* ?x71 |v8:3|)) (* ?x71 |v6:5|)) (* 7 |v7:4|))))
(let ((?x172 (- 11)))
(let ((?x405 (+ (+ (+ (* ?x239 |v6:5|) (* ?x142 |v7:4|)) (* (- 8) |v0:11|)) ?x404)))
(let ((?x24 20))
(let ((?x396 (* ?x142 |v7:4|)))
(let ((?x397 (+ (+ (+ (* ?x10 |v4:7|) (* ?x79 |v10:1|)) (* 7 |v6:5|)) ?x396)))
(let ((?x390 (+ (+ (+ (* ?x86 |v11:0|) (* ?x172 |v3:8|)) (* ?x90 |v9:2|)) (* ?x103 |v8:3|))))
(let (($x383 (<= (+ (+ (+ (* ?x10 |v6:5|) |v6:5|) (* ?x137 |v9:2|)) (* ?x86 |v1:10|)) ?x10)))
(let (($x376 (<= (+ (+ (+ ?x309 (* ?x37 |v10:1|)) (* 16 |v4:7|)) |v10:1|) ?x133)))
(let (($x430 (and (and (and $x376 $x383) (and (<= ?x390 ?x42) (<= ?x397 ?x24))) (and (or (<= ?x405 ?x172) (<= ?x411 ?x239)) (and (<= ?x418 ?x133) $x427)))))
(let ((?x364 (+ (+ (+ (* ?x357 |v6:5|) (* ?x24 |v4:7|)) (* (- 20) |v4:7|)) (* ?x155 |v8:3|))))
(let ((?x19 7))
(let ((?x180 (* ?x19 |v8:3|)))
(let (($x355 (<= (+ (+ (+ (* ?x90 |v7:4|) (* ?x133 |v6:5|)) (* ?x183 |v5:6|)) ?x180) ?x14)))
(let ((?x346 (+ (+ (+ (* ?x120 |v6:5|) (* ?x183 |v8:3|)) (* ?x111 |v9:2|)) (* ?x37 |v7:4|))))
(let ((?x338 (+ (+ (+ (* ?x37 |v6:5|) (* ?x236 |v10:1|)) (* 15 |v3:8|)) (* 19 |v3:8|))))
(let ((?x52 (* ?x51 |v11:0|)))
(let (($x329 (<= (+ (+ (+ (* ?x114 |v3:8|) (* 15 |v2:9|)) |v10:1|) ?x52) ?x55)))
(let ((?x322 (+ (+ (+ (* 19 |v0:11|) ?x52) (* 19 |v9:2|)) (* ?x149 |v2:9|))))
(let ((?x314 (+ (+ (+ (* ?x149 |v7:4|) ?x309) (* 5 |v8:3|)) (* (- 20) |v11:0|))))
(let ((?x306 (+ (+ (+ (* ?x71 |v1:10|) (* ?x90 |v9:2|)) (* ?x183 |v0:11|)) (* (- 15) |v4:7|))))
(let (($x368 (and (and (and (<= ?x306 ?x14) (<= ?x314 ?x63)) (and (<= ?x322 ?x96) $x329)) (and (and (<= ?x338 ?x19) (<= ?x346 ?x133)) (and $x355 (<= ?x364 ?x103))))))
(let ((?x294 (- 8)))
(let ((?x295 (* ?x294 |v0:11|)))
(let ((?x286 (+ (+ (+ (* ?x14 |v9:2|) (* ?x137 |v4:7|)) (* ?x71 |v1:10|)) (* (- 20) |v10:1|))))
(let (($x298 (and (<= ?x286 1) (<= (+ (+ (+ ?x237 (* ?x111 |v2:9|)) (* ?x114 |v1:10|)) ?x295) ?x14))))
(let (($x278 (<= (+ (+ (+ (* ?x14 |v9:2|) ?x272) (* ?x37 |v11:0|)) (* ?x71 |v6:5|)) ?x55)))
(let (($x279 (and (<= (+ (+ (+ ?x264 (* ?x149 |v0:11|)) |v6:5|) (* ?x10 |v7:4|)) ?x96) $x278)))
(let ((?x220 (* ?x59 |v1:10|)))
(let (($x261 (<= (+ (+ (+ (* ?x27 |v7:4|) (* ?x51 |v4:7|)) (* ?x42 |v4:7|)) ?x220) ?x236)))
(let ((?x252 (* ?x24 |v7:4|)))
(let (($x254 (<= (+ (+ (+ (* ?x10 |v2:9|) ?x248) (* 16 |v1:10|)) ?x252) ?x103)))
(let ((?x45 (- 20)))
(let (($x246 (<= (+ (+ (+ ?x237 (* ?x239 |v8:3|)) (* ?x59 |v7:4|)) (* ?x114 |v5:6|)) ?x45)))
(let ((?x187 5))
(let ((?x233 (+ (+ (+ (* ?x103 |v10:1|) ?x228) (* (- 19) |v4:7|)) (* ?x51 |v7:4|))))
(let (($x300 (and (and (and (<= ?x233 ?x187) $x246) (and $x254 $x261)) (and $x279 $x298))))
(let (($x222 (<= (+ (+ (+ (* ?x79 |v1:10|) (* ?x114 |v0:11|)) (* ?x137 |v11:0|)) ?x220) ?x51)))
(let ((?x213 (+ (+ (+ (* ?x45 |v7:4|) (* ?x19 |v0:11|)) (* ?x103 |v4:7|)) (* ?x86 |v7:4|))))
(let ((?x75 15))
(let ((?x76 (* ?x75 |v8:3|)))
(let (($x198 (<= (+ (+ (+ (* (- 15) |v7:4|) ?x180) (* ?x27 |v6:5|)) |v11:0|) ?x51)))
(let (($x206 (and $x198 (<= (+ (+ (+ (* ?x59 |v11:0|) (* ?x75 |v9:2|)) ?x76) ?x203) ?x51))))
(let ((?x189 (+ (+ (+ (* (- 15) |v8:3|) ?x180) (* ?x183 |v9:2|)) (* ?x187 |v2:9|))))
(let ((?x125 (* ?x10 |v4:7|)))
(let (($x176 (<= (+ (+ (+ (* ?x137 |v7:4|) (* ?x114 |v4:7|)) (* ?x172 |v8:3|)) ?x125) ?x90)))
(let ((?x165 (* ?x137 |v7:4|)))
(let ((?x163 (+ (+ (* 19 |v6:5|) (* ?x19 |v2:9|)) (* (- 16) |v2:9|))))
(let ((?x156 (* ?x155 |v10:1|)))
(let ((?x157 (+ (+ (+ (* ?x149 |v6:5|) (* (- 19) |v11:0|)) (* ?x137 |v6:5|)) ?x156)))
(let (($x192 (and (and (<= ?x157 ?x155) (<= (+ ?x163 ?x165) ?x79)) (and $x176 (<= ?x189 ?x90)))))
(let ((?x141 (+ (+ (+ (* 19 |v10:1|) (* ?x133 |v2:9|)) (* ?x137 |v1:10|)) ?x140)))
(let (($x127 (<= (+ (+ (+ (* ?x27 |v10:1|) (* ?x120 |v3:8|)) (* ?x55 |v5:6|)) ?x125) ?x75)))
(let ((?x113 (+ (+ (+ (* ?x42 |v0:11|) (* ?x103 |v9:2|)) (* 16 |v6:5|)) (* ?x111 |v11:0|))))
(let (($x99 (<= (+ (+ (+ (* ?x86 |v5:6|) (* ?x90 |v1:10|)) ?x93) (* ?x96 |v5:6|)) ?x19)))
(let (($x82 (<= (+ (+ (+ (* ?x55 |v11:0|) (* ?x71 |v4:7|)) ?x76) (* ?x79 |v2:9|)) ?x63)))
(let ((?x66 (- 19)))
(let (($x67 (<= (+ (+ (+ ?x52 (* ?x55 |v0:11|)) (* ?x59 |v2:9|)) (* ?x63 |v8:3|)) ?x66)))
(let ((?x44 (+ (+ (+ (* ?x14 |v8:3|) (* (- 16) |v9:2|)) (* ?x37 |v2:9|)) ?x43)))
(let ((?x26 (+ (+ (+ (* ?x10 |v2:9|) (* ?x14 |v3:8|)) (* ?x19 |v9:2|)) (* ?x24 |v5:6|))))
(let (($x146 (and (and (and (<= ?x26 ?x27) (<= ?x44 ?x45)) (and $x67 $x82)) (and (and $x99 (<= ?x113 ?x114)) (and $x127 (<= ?x141 ?x142))))))
(let (($x370 (and (and $x146 (and $x192 (and $x206 (and (<= ?x213 ?x59) $x222)))) (and $x300 $x368))))
(and $x370 (and (or $x430 $x491) (and (and $x520 (and $x534 $x549)) $x609)))))))))))))))))))))))))))))))))))))))))))))))))))))))))))))))))))))))))))))))))))))))))))))))))))))))))))))))))))))))))))))))))))))))))))))
)
)
)
)
)
)
)
)
)
)
)
)
(check-sat)
(exit)

